p cnf 18 35
12 -1 0
-11 -9 -15 0
13 -4 0
-12 13 0
-11 -4 -12 0
14 -5 0
-13 14 0
-11 -5 -13 0
15 -8 0
-14 15 0
-11 -8 -14 0
-1 11 0
-17 -2 -10 0
-2 17 0
-1 -2 0
-3 0
-4 11 0
-3 -4 0
-18 -5 -9 0
-5 11 18 0
-6 0
-5 -6 0
-7 0
-8 11 0
-7 -8 0
-9 11 18 0
-10 17 0
-9 -10 0
1 4 5 8 9 0
2 10 0
5 9 0
1 2 3 4 -5 6 7 8 9 -10  0
1 -2 3 4 -5 6 7 8 9 10  0
1 -2 3 4 5 6 7 8 -9 10  0
